Route #1: 1 2 53 28 17 36 49 37 50 4 1
Route #2: 1 14 34 12 56 32 21 31 35 55 3 44 11 30 1
Route #3: 1 26 46 42 43 48 27 22 19 1
Route #4: 1 33 40 5 16 8 25 7 1
Route #5: 1 15 45 52 29 41 18 9 47 54 1
Route #6: 1 13 10 39 51 23 24 6 20 1
Route #7: 1 38 1
cost 913.8286097610323
